! wb97x-v def2-tzvp def2/J RIJCOSX DEFGRID2 scfconv7 GCP(DFT/TZ) SMD(toluene) printgap
%pal
nprocs 8
end
%output
printlevel normal
end
* xyz 0 1
 O          2.8783758069       -0.8310320510        1.3741104392
 C          3.1742661713       -0.8987393894        0.2054973480
 C          3.0375566882       -2.1227201659       -0.6742994658
 C          2.7808051768       -3.4142862707        0.1113069079
 C          1.3531105063       -3.9343139994       -0.0541083195
 C          0.3363292111       -3.0098182441        0.6018376317
 O         -0.9509505660       -3.2786930440        0.0321498381
 C         -1.9743148240       -2.5625445389        0.4799647680
 O         -1.9060379335       -1.7788014726        1.3975240410
 C         -3.2354656237       -2.8526216312       -0.3107322316
 C         -3.9343111159       -1.5408969188       -0.6686550415
 C         -3.0932199672       -0.6885905166       -1.6220260362
 C         -3.6233790490        0.7423719264       -1.6869105614
 O         -3.5580649363        1.3472437722       -0.3933507860
 C         -2.5331715649        2.1519832734       -0.1075489027
 O         -1.6888436741        2.4890037164       -0.9011980383
 C         -2.6426582346        2.6323181127        1.3258499476
 C         -1.3126708790        3.1002901281        1.9181441444
 C         -0.4876757911        1.9709626373        2.5407587266
 C         -0.0118774296        0.9394137749        1.5257186375
 O          0.7366378387        1.6138481445        0.5122402239
 C          0.8385153602        1.0502468831       -0.6791015942
 O          0.4151504444       -0.0551170833       -0.9460376233
 C          1.4895608177        1.9542029808       -1.7031521534
 C          2.4474390391        3.0087254582       -1.1482153344
 C          3.8581767969        2.4865978074       -0.8679048115
 C          3.9229188118        1.3617895939        0.1606542188
 O          3.6809250445        0.1122574283       -0.4977879962
 H          2.2109828606       -1.9134694342       -1.3578074683
 H          3.9443276323       -2.1902377409       -1.2765946785
 H          3.4721539378       -4.1875305268       -0.2253885042
 H          2.9718180859       -3.2277063835        1.1703805888
 H          1.1089830865       -4.0085260838       -1.1157497830
 H          1.2706190079       -4.9328697539        0.3784940859
 H          0.5737996954       -1.9613513558        0.4058819287
 H          0.2925982160       -3.1532624176        1.6866082060
 H         -3.8927025591       -3.4601706774        0.3153878833
 H         -2.9689281315       -3.4215813952       -1.2011209547
 H         -4.9050575436       -1.7508619014       -1.1212773133
 H         -4.0982472120       -0.9795799265        0.2532191003
 H         -2.0562967560       -0.6556171734       -1.2790888707
 H         -3.1009732067       -1.1144618726       -2.6265631031
 H         -3.0379144161        1.3408048455       -2.3922407985
 H         -4.6796734450        0.7572288905       -1.9678271058
 H         -3.3494898430        3.4666896629        1.3045357013
 H         -3.0883547852        1.8357615752        1.9228896437
 H         -0.7298943715        3.5790524535        1.1289711220
 H         -1.5109588696        3.8419581170        2.6936009505
 H         -1.0750337131        1.4463201658        3.2959438911
 H          0.3863974067        2.4079943998        3.0276288877
 H         -0.8510266181        0.4098166794        1.0659065984
 H          0.6363122256        0.1956478136        2.0036824030
 H          1.9786670038        1.3270927540       -2.4504369970
 H          0.6433269704        2.4545418903       -2.1839210222
 H          2.5313694049        3.8135332672       -1.8814875629
 H          2.0244592575        3.4307059878       -0.2362231969
 H          4.3060445011        2.1183735812       -1.7932480487
 H          4.4664392939        3.3157319256       -0.5028305923
 H          3.1920623282        1.5009713765        0.9624205277
 H          4.9228735789        1.3063175217        0.6073011524
*

